10
0, 521, 732, 658, 723, 512, 874, 652, 869, 711
521, 0, 579, 756, 969, 524, 364, 354, 671, 565
732, 579, 0, 333, 607, 239, 618, 242, 138, 20
658, 756, 333, 0, 274, 232, 910, 513, 427, 324
723, 969, 607, 274, 0, 469, 1169, 775, 695, 599
512, 524, 239, 232, 469, 0, 701, 314, 376, 220
874, 364, 618, 910, 1169, 701, 0, 396, 636, 615
652, 354, 242, 513, 775, 314, 396, 0, 317, 233
869, 671, 138, 427, 695, 376, 636, 317, 0, 158
711, 565, 20, 324, 599, 220, 615, 233, 158, 0
